Read MPS format model from file dat/rmp/DER_96_4096_53.mps
Reading time = 0.91 seconds
: 4192 rows, 31520 columns, 2699448 nonzeros
Gurobi Optimizer version 9.0.0 build v9.0.0rc2 (linux64)
Optimize a model with 4192 rows, 31520 columns and 2699448 nonzeros
Model fingerprint: 0x7f76ff9b
Coefficient statistics:
  Matrix range     [4e-05, 1e+01]
  Objective range  [8e-01, 1e+03]
  Bounds range     [2e+04, 2e+04]
  RHS range        [1e+00, 1e+00]
Ordering time: 0.01s

Barrier statistics:
 AA' NZ     : 3.757e+05
 Factor NZ  : 4.223e+05 (roughly 18 MBytes of memory)
 Factor Ops : 4.444e+07 (less than 1 second per iteration)
 Threads    : 1

                  Objective                Residual
Iter       Primal          Dual         Primal    Dual     Compl     Time
   0   1.24261881e+09 -1.81797545e+08  1.02e+07 2.42e-02  4.77e+05     1s
   1   3.97705444e+07 -2.52973290e+07  2.97e+05 2.73e-12  1.46e+04     1s
   2   3.74447944e+06 -6.87673023e+06  2.68e+04 5.46e-12  1.50e+03     1s
   3   7.63963000e+04 -3.92733514e+06  2.94e+02 3.64e-12  1.37e+02     1s
   4   2.88203332e+04 -1.99499963e+04  4.90e-11 1.82e-12  1.54e+00     1s
   5   2.87097058e+04  2.01508886e+04  7.27e-11 1.82e-12  2.71e-01     2s
   6   2.85930138e+04  2.58887036e+04  6.20e-11 3.64e-12  8.55e-02     2s
   7   2.84493018e+04  2.75541467e+04  6.45e-11 2.73e-12  2.83e-02     2s
   8   2.83653499e+04  2.78561376e+04  6.44e-11 3.64e-12  1.61e-02     2s
   9   2.82353955e+04  2.80455403e+04  8.03e-11 3.64e-12  6.01e-03     2s
  10   2.82118402e+04  2.80803598e+04  1.31e-10 1.82e-12  4.16e-03     3s
  11   2.81902128e+04  2.81141933e+04  1.75e-10 1.82e-12  2.40e-03     3s
  12   2.81652931e+04  2.81233884e+04  1.95e-10 5.46e-12  1.33e-03     3s
  13   2.81574834e+04  2.81278623e+04  2.74e-10 3.64e-12  9.37e-04     3s
  14   2.81487319e+04  2.81332726e+04  6.22e-10 1.82e-12  4.89e-04     3s
  15   2.81430027e+04  2.81354409e+04  6.56e-10 3.64e-12  2.39e-04     4s
  16   2.81394474e+04  2.81378180e+04  1.95e-09 3.64e-12  5.15e-05     4s
  17   2.81389124e+04  2.81380769e+04  2.98e-09 3.64e-12  2.64e-05     4s
  18   2.81387457e+04  2.81382640e+04  2.04e-09 1.82e-12  1.52e-05     4s
  19   2.81386080e+04  2.81383605e+04  2.54e-09 1.82e-12  7.83e-06     5s
  20   2.81385114e+04  2.81384009e+04  4.00e-09 1.82e-12  3.50e-06     5s
  21   2.81384658e+04  2.81384270e+04  4.24e-09 1.82e-12  1.23e-06     5s
  22   2.81384411e+04  2.81384382e+04  4.65e-09 3.64e-12  8.92e-08     5s
  23   2.81384393e+04  2.81384390e+04  6.67e-08 1.82e-12  1.02e-08     5s
  24   2.81384390e+04  2.81384390e+04  3.25e-07 2.73e-12  9.09e-11     6s

Barrier solved model in 24 iterations and 5.51 seconds
Optimal objective 2.81384390e+04

Solve time: 5.513080243
Barrier iterations: 24
